
Gurobi 9.5.1 (linux64) logging started Wed Jun  8 12:52:58 2022

Set parameter LogFile to value "../results/logs/log_com-dblp.ungraph_3_250_2022_06_08_10_07.log"
Gurobi Optimizer version 9.5.1 build v9.5.1rc2 (linux64)
Thread count: 8 physical cores, 8 logical processors, using up to 8 threads
Optimize a model with 22021 rows, 634160 columns and 227191 nonzeros
Model fingerprint: 0x5cafef5c
Variable types: 0 continuous, 634160 integer (634160 binary)
Coefficient statistics:
  Matrix range     [1e+00, 3e+00]
  Objective range  [1e+00, 1e+00]
  Bounds range     [1e+00, 1e+00]
  RHS range        [1e+00, 2e+02]

User MIP start produced solution with objective 204775 (0.17s)
Loaded user MIP start with objective 204775

Presolve removed 13802 rows and 621821 columns
Presolve time: 0.36s
Presolved: 8219 rows, 12339 columns, 35698 nonzeros
Variable types: 0 continuous, 12339 integer (11212 binary)

Root relaxation: objective 2.056503e+05, 6278 iterations, 0.14 seconds (0.21 work units)

    Nodes    |    Current Node    |     Objective Bounds      |     Work
 Expl Unexpl |  Obj  Depth IntInf | Incumbent    BestBd   Gap | It/Node Time

     0     0 205650.324    0 2008 204775.000 205650.324  0.43%     -    0s
H    0     0                    204787.00000 205650.324  0.42%     -    1s
     0     0 204988.421    0  898 204787.000 204988.421  0.10%     -    1s
H    0     0                    204827.00000 204988.421  0.08%     -    1s
     0     0 204931.288    0  697 204827.000 204931.288  0.05%     -    1s
     0     0 204924.853    0  658 204827.000 204924.853  0.05%     -    1s
     0     0 204924.470    0  656 204827.000 204924.470  0.05%     -    1s
     0     0 204924.303    0  658 204827.000 204924.303  0.05%     -    1s
     0     0 204869.104    0  162 204827.000 204869.104  0.02%     -    1s
     0     0 204867.000    0  146 204827.000 204867.000  0.02%     -    1s
H    0     0                    204841.00000 204866.866  0.01%     -    1s
     0     0 204866.866    0  143 204841.000 204866.866  0.01%     -    1s
     0     0 204862.175    0  114 204841.000 204862.175  0.01%     -    2s
H    0     0                    204845.00000 204862.175  0.01%     -    2s
     0     0 204861.250    0   84 204845.000 204861.250  0.01%     -    2s
     0     0 204861.000    0   88 204845.000 204861.000  0.01%     -    2s
     0     0 204861.000    0   68 204845.000 204861.000  0.01%     -    2s
     0     0 204861.000    0   68 204845.000 204861.000  0.01%     -    2s
     0     0 204861.000    0   68 204845.000 204861.000  0.01%     -    2s
     0     0 204861.000    0   68 204845.000 204861.000  0.01%     -    2s
H    0     0                    204846.00000 204861.000  0.01%     -    2s
H    0     0                    204853.00000 204861.000  0.00%     -    3s
     0     2 204860.984    0   56 204853.000 204860.984  0.00%     -    3s
   296   461 204856.788   36   27 204853.000 204860.044  0.00%  34.1    5s
H  966   704                    204854.00000 204860.044  0.00%  13.2    6s
H 1838  1000                    204855.00000 204858.409  0.00%   9.2    7s
* 1933   821             135    204856.00000 204858.254  0.00%   8.9    8s
  2744   168 204856.803   21   64 204856.000 204857.997  0.00%   8.2   10s
* 2754   165               9    204857.00000 204857.000  0.00%   8.2   11s

Cutting planes:
  Gomory: 194
  Cover: 27
  Implied bound: 127
  Clique: 4
  MIR: 822
  StrongCG: 20
  Flow cover: 102
  GUB cover: 953
  Inf proof: 1
  Zero half: 99
  Mod-K: 1
  RLT: 22
  Relax-and-lift: 8

Explored 2754 nodes (50906 simplex iterations) in 11.16 seconds (13.50 work units)
Thread count was 8 (of 8 available processors)

Solution count 10: 204857 204856 204855 ... 204787

Optimal solution found (tolerance 0.00e+00)
Best objective 2.048570000000e+05, best bound 2.048570000000e+05, gap 0.0000%
